Reading model...
...model read.
creating competitive generators file...
...competitive generators recorded.
Loading data...
.. real-time data read.
Compiling instance...
...instance created.
Creating Offer Mitigation (model will solve as dispatch if TRUE)...
NOTE: storage offers will not be mitigated
...storage offer mitigation file created
Converting model to MPEC...
...converted
NOTE: initial MIP solve with only storage competitive to get feasible solution
Solving...

Welcome to IBM(R) ILOG(R) CPLEX(R) Interactive Optimizer 12.9.0.0
  with Simplex, Mixed Integer & Barrier Optimizers
5725-A06 5725-A29 5724-Y48 5724-Y49 5724-Y54 5724-Y55 5655-Y21
Copyright IBM Corp. 1988, 2019.  All Rights Reserved.

Type 'help' for a list of available commands.
Type 'help' followed by a command name for more
information on commands.

CPLEX> Logfile 'cplex.log' closed.
Logfile 'C:\Users\llavin\Desktop\test826\logs\tmpm_2mu6z0.cplex.log' open.
CPLEX> New value for parallel optimization mode: -1
CPLEX> New value for emphasis for MIP optimization: 1
CPLEX> New value for mixed integer optimality gap tolerance: 0.01
CPLEX> New value for integrality tolerance: 1e-12
CPLEX> New value for deterministic time limit in ticks: 65000
CPLEX> Problem 'C:\Users\llavin\Desktop\test826\logs\tmp1_s965a8.pyomo.lp' read.
Read time = 0.48 sec. (28.91 ticks)
CPLEX> Problem name         : C:\Users\llavin\Desktop\test826\logs\tmp1_s965a8.pyomo.lp
Objective sense      : Maximize
Variables            :  107803  [Nneg: 1,  Box: 44062,  Free: 8928,
                                 Binary: 54812]
Objective nonzeros   :   17280
Linear constraints   :  246963  [Less: 82886,  Greater: 118460,  Equal: 45617]
  Nonzeros           :  620741
  RHS nonzeros       :  134922

Variables            : Min LB: -5000.000        Max UB: 1000000.       
Objective nonzeros   : Min   : 0.1944444        Max   : 180.0000       
Linear constraints   :
  Nonzeros           : Min   : 0.001000000      Max   : 1000000.       
  RHS nonzeros       : Min   : 0.001000000      Max   : 1000000.       
CPLEX> CPXPARAM_Parallel                                -1
CPXPARAM_Emphasis_MIP                            1
CPXPARAM_DetTimeLimit                            65000
CPXPARAM_MIP_Tolerances_MIPGap                   0.01
CPXPARAM_MIP_Tolerances_Integrality              9.9999999999999998e-13
Tried aggregator 3 times.
MIP Presolve eliminated 181802 rows and 41628 columns.
MIP Presolve added 6048 rows and 0 columns.
MIP Presolve modified 49862 coefficients.
Aggregator did 25863 substitutions.
Reduced MIP has 45346 rows, 38680 columns, and 142725 nonzeros.
Reduced MIP has 15199 binaries, 0 generals, 0 SOSs, and 0 indicators.
Presolve time = 0.58 sec. (386.42 ticks)
Probing fixed 782 vars, tightened 12343 bounds.
Probing time = 0.38 sec. (15.70 ticks)
Tried aggregator 2 times.
MIP Presolve eliminated 1756 rows and 1564 columns.
MIP Presolve modified 5376 coefficients.
Aggregator did 48 substitutions.
Reduced MIP has 43542 rows, 37068 columns, and 137505 nonzeros.
Reduced MIP has 14417 binaries, 0 generals, 0 SOSs, and 0 indicators.
Presolve time = 0.20 sec. (214.06 ticks)
Probing fixed 2 vars, tightened 693 bounds.
Probing time = 0.50 sec. (17.72 ticks)
Clique table members: 78719.
MIP emphasis: integer feasibility.
MIP search method: dynamic search.
Parallel mode: opportunistic, using up to 32 threads.
Root relaxation solution time = 0.80 sec. (1675.26 ticks)

        Nodes                                         Cuts/
   Node  Left     Objective  IInf  Best Integer    Best Bound    ItCnt     Gap

      0     0     -674.1938   342                   -674.1938     8290         
      0     0     -674.1938     2                     Cuts: 2     8293         
      0     0     -674.1938     3                   Covers: 1     8295         
      0     0     -674.1938     4                     Cuts: 4     8298         
      0     3     -674.1938     3                   -674.1938     8301         
Elapsed time = 5.89 sec. (3942.00 ticks, tree = 0.02 MB, solutions = 1)
*     8     4      integral     0     -674.7343     -674.1938     8305    0.08%

Cover cuts applied:  2
Implied bound cuts applied:  1
Gomory fractional cuts applied:  1

Root node processing (before b&c):
  Real time             =    4.72 sec. (3870.90 ticks)
Parallel b&c, 32 threads:
  Real time             =    1.39 sec. (217.51 ticks)
  Sync time (average)   =    0.36 sec.
  Wait time (average)   =    0.00 sec.
                          ------------
Total (root+branch&cut) =    6.11 sec. (4088.41 ticks)

Solution pool: 1 solution saved.

MIP - Integer optimal, tolerance (0.01/1e-06):  Objective = -6.7473432644e+02
Current MIP best bound = -6.7419379441e+02 (gap = 0.540532, 0.08%)
Solution time =    6.16 sec.  Iterations = 8320  Nodes = 9 (4)
Deterministic time = 4088.72 ticks  (664.18 ticks/sec)

CPLEX> Incumbent solution written to file 'C:\Users\llavin\Desktop\test826\logs\tmpzel66hdi.cplex.sol'.
CPLEX> NOTE: no warmstart specified for MIP iteration, default behavior is true
NOTE: resolving with all competitive generators using storage-only solution to warmstart
Solving...

Welcome to IBM(R) ILOG(R) CPLEX(R) Interactive Optimizer 12.9.0.0
  with Simplex, Mixed Integer & Barrier Optimizers
5725-A06 5725-A29 5724-Y48 5724-Y49 5724-Y54 5724-Y55 5655-Y21
Copyright IBM Corp. 1988, 2019.  All Rights Reserved.

Type 'help' for a list of available commands.
Type 'help' followed by a command name for more
information on commands.

CPLEX> Logfile 'cplex.log' closed.
Logfile 'C:\Users\llavin\Desktop\test826\logs\tmpdkejlggs.cplex.log' open.
CPLEX> New value for parallel optimization mode: -1
CPLEX> New value for emphasis for MIP optimization: 1
CPLEX> New value for mixed integer optimality gap tolerance: 0.01
CPLEX> New value for integrality tolerance: 1e-12
CPLEX> New value for deterministic time limit in ticks: 65000
CPLEX> Problem 'C:\Users\llavin\Desktop\test826\logs\tmpycbec031.pyomo.lp' read.
Read time = 0.48 sec. (28.95 ticks)
CPLEX> MIP start file 'C:\Users\llavin\Desktop\test826\logs\tmpsagmbosg.cplex.mst' read.
CPLEX> Problem name         : C:\Users\llavin\Desktop\test826\logs\tmpycbec031.pyomo.lp
Objective sense      : Maximize
Variables            :  109243  [Nneg: 1,  Box: 45502,  Free: 8928,
                                 Binary: 54812]
Objective nonzeros   :   18672
Linear constraints   :  246963  [Less: 82886,  Greater: 118460,  Equal: 45617]
  Nonzeros           :  620741
  RHS nonzeros       :  134922

Variables            : Min LB: -5000.000        Max UB: 1000000.       
Objective nonzeros   : Min   : 0.1944444        Max   : 180.0000       
Linear constraints   :
  Nonzeros           : Min   : 0.001000000      Max   : 1000000.       
  RHS nonzeros       : Min   : 0.001000000      Max   : 1000000.       
CPLEX> CPXPARAM_Parallel                                -1
CPXPARAM_Emphasis_MIP                            1
CPXPARAM_DetTimeLimit                            65000
CPXPARAM_MIP_Tolerances_MIPGap                   0.01
CPXPARAM_MIP_Tolerances_Integrality              9.9999999999999998e-13
Warning:  No solution found from 1 MIP starts.
Retaining values of one MIP start for possible repair.
Tried aggregator 3 times.
MIP Presolve eliminated 181802 rows and 43068 columns.
MIP Presolve added 6048 rows and 0 columns.
MIP Presolve modified 49862 coefficients.
Aggregator did 25863 substitutions.
Reduced MIP has 45346 rows, 38680 columns, and 142725 nonzeros.
Reduced MIP has 15199 binaries, 0 generals, 0 SOSs, and 0 indicators.
Presolve time = 0.59 sec. (387.19 ticks)
Probing fixed 782 vars, tightened 12343 bounds.
Probing time = 0.38 sec. (15.70 ticks)
Tried aggregator 2 times.
MIP Presolve eliminated 1756 rows and 1564 columns.
MIP Presolve modified 5376 coefficients.
Aggregator did 48 substitutions.
Reduced MIP has 43542 rows, 37068 columns, and 137505 nonzeros.
Reduced MIP has 14417 binaries, 0 generals, 0 SOSs, and 0 indicators.
Presolve time = 0.20 sec. (214.07 ticks)
Probing fixed 2 vars, tightened 692 bounds.
Probing time = 0.48 sec. (17.72 ticks)
Clique table members: 78719.
MIP emphasis: integer feasibility.
MIP search method: dynamic search.
Parallel mode: opportunistic, using up to 32 threads.
Root relaxation solution time = 0.95 sec. (1846.52 ticks)

        Nodes                                         Cuts/
   Node  Left     Objective  IInf  Best Integer    Best Bound    ItCnt     Gap

      0     0    32018.4083   520                  32018.4083     9976         
      0     0    30692.3117   493                   Cuts: 408    10928         
      0     0    30363.6547   469                   Cuts: 229    11273         
      0     0    30361.9768   470                     Cuts: 3    11279         
Repair heuristic found nothing.
      0     6    30146.4072   469                  30313.1021    11365         
Elapsed time = 8.23 sec. (4570.91 ticks, tree = 0.02 MB, solutions = 0)
    277    80    29326.5469   432                  30070.4046    12381         
    548   309    29011.5603   400                  30070.4046    14820         
    842   548    28500.5488   362                  30070.4046    17492         
   1034   815    27762.4222   311                  30070.4046    20250         
   1312  1002    26581.8413   241                  30070.4046    22125         
   1618  1338    26918.8857   259                  30070.4046    26002         
   1924  1666    25693.0531   202                  30070.4046    29311         
   2272  1906    infeasible                        30070.4046    32011         
   2614  2340    26148.0963   235                  30070.4046    35759         
   3848  3251    26811.1264   414                  30070.4046    45582         
Elapsed time = 28.14 sec. (7680.51 ticks, tree = 48.68 MB, solutions = 0)
   4492  3698    15556.5095    94                  30070.4046    61988         
   5419  4522    11815.3970   100                  30070.4046    95484         
   6376  5068     2639.7419    79                  30070.4046   111586         
   7548  6123     3866.9791    68                  30070.4046   142182         
   8501  6690    17373.1568   300                  30070.4046   162140         
   9597  7372    28620.2245   269                  30070.4046   184651         
  10836  8548    16863.0483   133                  30070.4046   202902         
  11978  9442    26340.5831   170                  30070.4046   213956         
  12949 10154    infeasible                        30070.4046   222880         
  13854 10607    24597.5548   308                  30070.4046   234325         
Elapsed time = 119.70 sec. (17224.72 ticks, tree = 1752.26 MB, solutions = 0)
  14584 11586    21640.0200   210                  30070.4046   259607         
  15447 11866    16836.9278   174                  30070.4046   266080         
  16473 13481    15002.6717   305                  30070.4046   312276         
  17610 14768    25962.3837   392                  30070.4046   346726         
  18660 15207    19019.1454   302                  30070.4046   358794         
  19602 16245    21357.0977   363                  30070.4046   385121         
  20661 16897    26906.6869   379                  30070.4046   407014         
  21713 17959    infeasible                        30070.4046   442729         
  23062 18872     5512.6812   125                  30070.4046   471192         
  24201 19296     7911.0655   143                  30070.4046   488317         
Elapsed time = 199.83 sec. (26766.11 ticks, tree = 2661.56 MB, solutions = 0)
Nodefile size = 610.54 MB (350.26 MB after compression)
  25143 19802    22503.5565   405                  30070.4046   509609         
  26145 20624    26199.2934   432                  30070.4046   542148         
  27195 21004     7285.6788   180                  30070.4046   560487         
  28233 21760    -1215.8789   300                  30070.4046   593284         
  29291 22680    28071.9084   408                  30070.4046   627735         
  30326 23594    13245.0207   391                  30070.4046   657758         
  31242 24363   -27294.7761   403                  30070.4046   685049         
  32141 24949     7397.8858   317                  30070.4046   707984         
  33098 26021    27882.9013   403                  30070.4046   750423         
  34061 26692    24214.3183   332                  30070.4046   775749         
Elapsed time = 292.22 sec. (36312.33 ticks, tree = 2820.44 MB, solutions = 0)
Nodefile size = 760.40 MB (413.48 MB after compression)
  34934 27420    25572.5455   428                  30070.4046   800682         
  35803 28371     5321.5772   275                  30070.4046   842364         
  36639 28595    12005.0757   272                  30070.4046   854622         
  37533 29252    19643.6330   295                  30070.4046   882432         
  38358 30143    infeasible                        30070.4046   920637         
  39208 30471   -10739.7183   218                  30070.4046   934383         
  40041 31351    11570.4176   252                  30070.4046   972702         
  40839 32421    24450.8507   332                  30070.4046  1021072         
  41660 33175    16968.3123   302                  30070.4046  1057196         
  42471 33268    12084.2229   377                  30070.4046  1061116         
Elapsed time = 408.80 sec. (45866.09 ticks, tree = 3175.98 MB, solutions = 0)
Nodefile size = 1123.16 MB (597.65 MB after compression)
  43286 34069   -14525.0479   391                  30070.4046  1094443         
  44128 34412    25101.9096   337                  30070.4046  1108208         
  45002 35292    infeasible                        30070.4046  1150475         
  45914 35827    19519.9272   261                  30070.4046  1172990         
  46655 37143    15408.3884   294                  30070.4046  1233291         
  47421 37259    -5024.9199   217                  30070.4046  1238710         
  48146 38112     8272.9117   168                  30070.4046  1279954         
  48956 38535    25930.7387   229                  30070.4046  1300396         
  49611 39196     6345.4206   407                  30070.4046  1333552         
  50336 39823    25695.5127   368                  30070.4046  1368761         
Elapsed time = 512.09 sec. (55412.12 ticks, tree = 3498.22 MB, solutions = 0)
Nodefile size = 1443.91 MB (754.86 MB after compression)
  51102 40162    22537.5199   410                  30070.4046  1389399         
  51901 40918   -18981.3344   426                  30070.4046  1432888         
  52648 41317    10167.9947   474                  30070.4046  1451396         
  53357 42176     1738.7537   366                  30070.4046  1499004         
  54141 42129   -79289.6896   111                  30070.4046  1495626         
  54914 43157    25490.0597   363                  30070.4046  1562357         
  55756 42875    22531.4891   331                  30070.4046  1547195         
  56539 43960    13923.8159   319                  30070.4046  1602197         
  57288 45316      757.6773   248                  30070.4046  1662318         
  58075 45160    -7750.3979   278                  30070.4046  1655239         
Elapsed time = 645.59 sec. (64959.69 ticks, tree = 3708.39 MB, solutions = 0)
Nodefile size = 1650.76 MB (849.96 MB after compression)

Cover cuts applied:  76
Flow cuts applied:  428
Mixed integer rounding cuts applied:  13

Root node processing (before b&c):
  Real time             =    5.70 sec. (4505.94 ticks)
Parallel b&c, 32 threads:
  Real time             =  642.03 sec. (60622.21 ticks)
  Sync time (average)   =  292.27 sec.
  Wait time (average)   =    0.00 sec.
                          ------------
Total (root+branch&cut) =  647.73 sec. (65128.15 ticks)


MIP - Deterministic time limit exceeded, no integer solution.
Current MIP best bound =  3.0070404573e+04 (gap is infinite)
Solution time =  647.77 sec.  Iterations = 1714241  Nodes = 58113 (46460)
Deterministic time = 65128.46 ticks  (100.54 ticks/sec)

CPLEX> CPLEX Error  1217: No solution exists.
No file written.
CPLEX> gap is infinite, so writing 0
Exporting results... 
